NAME: line_10_1
TYPE: TSP
COMMENT: line_10_1
DIMENSION: 10
EDGE_WEIGHT_TYPE: EUC_2D
NODE_COORD_SECTION
1 0.0 16.0
2 0.0 35.0
3 0.0 6.0
4 0.0 77.0
5 0.0 4.0
6 0.0 44.0
7 0.0 61.0
8 0.0 87.0
9 0.0 41.0
10 0.0 71.0
